p tdp 70 105
1 6
1 30
1 57
2 34
2 52
2 56
3 4
3 41
3 50
4 38
4 43
5 11
5 23
5 36
6 18
6 61
7 33
7 43
7 66
8 30
8 58
8 63
9 24
9 29
9 50
10 12
10 31
10 37
11 22
11 64
12 50
12 61
13 31
13 45
13 46
14 22
14 34
14 45
15 52
15 62
15 69
16 22
16 66
16 70
17 40
17 47
17 63
18 20
18 67
19 32
19 42
19 59
20 59
20 65
21 28
21 37
21 69
23 44
23 47
24 40
24 70
25 30
25 35
25 45
26 28
26 33
26 35
27 33
27 47
27 56
28 55
29 35
29 53
31 54
32 34
32 38
36 53
36 62
37 42
38 49
39 52
39 58
39 60
40 51
41 58
41 64
42 63
43 68
44 49
44 54
46 51
46 68
48 57
48 69
48 70
49 57
51 67
53 59
54 60
55 64
55 67
56 61
60 65
62 68
65 66
